967918
967918
945610
943469
943469
933042
933004
905222
861481
861481
861481
861481
861481
861481
861481
856571
856571
856571
856571
856571
852814
852814
852814
850884
826454
826454
826454
826454
826454
822851
822851
819753
818479
813456
813410
813410
773518
773518
773518
773518
773518
773518
773518
773518
773518
773518
773518
772317
772317
772317
769531
769531
757027
757027
757027
754489
737670
737670
735099
735099
735099
735099
725033
725033
725033
725033
722783
720477
720477
718703
718703
703070
703070
692590
692590
692590
692590
680671
666523
663865
663865
663865
639067
639067
639067
639067
639067
639067
639067
639067
639067
639067
639067
639067
639067
639067
621417
621417
619366
602327
